Mg1 O1
1.0
        3.0097887516         0.0000000000         0.0000000000
        1.5048943758         2.6065535189         0.0000000000
        1.5048943758         0.8688511730         2.4574822250
   Mg    O
    1    1
Direct
     0.000000000         0.000000000         0.000000000
     0.500000000         0.500000000         0.500000000
